Problem:    PLI
Rows:       96
Columns:    155 (80 integer, 80 binary)
Non-zeros:  235
Status:     INTEGER OPTIMAL
Objective:  z = 10.4 (MINimum)

   No.   Row name        Activity     Lower bound   Upper bound
------ ------------    ------------- ------------- -------------
     1 def_dist[1,1]
                             31.2921       31.2921             = 
     2 def_dist[1,2]
                             31.3178       31.3178             = 
     3 def_dist[1,3]
                             31.6375       31.6375             = 
     4 def_dist[1,4]
                             31.1458       31.1458             = 
     5 def_dist[1,5]
                             31.3306       31.3306             = 
     6 def_dist[1,6]
                             31.8549       31.8549             = 
     7 def_dist[1,7]
                             31.1443       31.1443             = 
     8 def_dist[1,8]
                             31.2096       31.2096             = 
     9 def_dist[1,9]
                             30.9085       30.9085             = 
    10 def_dist[1,10]
                             31.0673       31.0673             = 
    11 def_dist[1,11]
                             31.2028       31.2028             = 
    12 def_dist[1,12]
                             31.7284       31.7284             = 
    13 def_dist[1,13]
                             31.5216       31.5216             = 
    14 def_dist[1,14]
                             31.1616       31.1616             = 
    15 def_dist[1,15]
                             31.3092       31.3092             = 
    16 def_dist[2,1]
                             59.7796       59.7796             = 
    17 def_dist[2,2]
                             59.6532       59.6532             = 
    18 def_dist[2,3]
                             60.1218       60.1218             = 
    19 def_dist[2,4]
                              59.584        59.584             = 
    20 def_dist[2,5]
                             59.8916       59.8916             = 
    21 def_dist[2,6]
                              60.234        60.234             = 
    22 def_dist[2,7]
                              59.595        59.595             = 
    23 def_dist[2,8]
                              59.526        59.526             = 
    24 def_dist[2,9]
                             59.4242       59.4242             = 
    25 def_dist[2,10]
                             59.6236       59.6236             = 
    26 def_dist[2,11]
                             59.5014       59.5014             = 
    27 def_dist[2,12]
                             60.1622       60.1622             = 
    28 def_dist[2,13]
                             60.0609       60.0609             = 
    29 def_dist[2,14]
                             59.5546       59.5546             = 
    30 def_dist[2,15]
                             59.8303       59.8303             = 
    31 def_dist[3,1]
                             90.7403       90.7403             = 
    32 def_dist[3,2]
                             90.4638       90.4638             = 
    33 def_dist[3,3]
                             91.0568       91.0568             = 
    34 def_dist[3,4]
                             90.5061       90.5061             = 
    35 def_dist[3,5]
                             90.9231       90.9231             = 
    36 def_dist[3,6]
                             91.0507       91.0507             = 
    37 def_dist[3,7]
                             90.5294       90.5294             = 
    38 def_dist[3,8]
                             90.3257       90.3257             = 
    39 def_dist[3,9]
                              90.438        90.438             = 
    40 def_dist[3,10]
                             90.6674       90.6674             = 
    41 def_dist[3,11]
                             90.2846       90.2846             = 
    42 def_dist[3,12]
                             91.0412       91.0412             = 
    43 def_dist[3,13]
                             91.0583       91.0583             = 
    44 def_dist[3,14]
                             90.4315       90.4315             = 
    45 def_dist[3,15]
                             90.8233       90.8233             = 
    46 def_dist[4,1]
                             46.6819       46.6819             = 
    47 def_dist[4,2]
                             47.0373       47.0373             = 
    48 def_dist[4,3]
                             46.9535       46.9535             = 
    49 def_dist[4,4]
                             46.6804       46.6804             = 
    50 def_dist[4,5]
                             46.5425       46.5425             = 
    51 def_dist[4,6]
                             47.3554       47.3554             = 
    52 def_dist[4,7]
                             46.6516       46.6516             = 
    53 def_dist[4,8]
                             46.9951       46.9951             = 
    54 def_dist[4,9]
                             46.3254       46.3254             = 
    55 def_dist[4,10]
                             46.3527       46.3527             = 
    56 def_dist[4,11]
                             47.0278       47.0278             = 
    57 def_dist[4,12]
                              47.137        47.137             = 
    58 def_dist[4,13]
                             46.7387       46.7387             = 
    59 def_dist[4,14]
                             46.7926       46.7926             = 
    60 def_dist[4,15]
                             46.6183       46.6183             = 
    61 def_dist[5,1]
                             100.548       100.548             = 
    62 def_dist[5,2]
                             100.512       100.512             = 
    63 def_dist[5,3]
                             100.895       100.895             = 
    64 def_dist[5,4]
                             100.382       100.382             = 
    65 def_dist[5,5]
                             100.615       100.615             = 
    66 def_dist[5,6]
                             101.072       101.072             = 
    67 def_dist[5,7]
                             100.385       100.385             = 
    68 def_dist[5,8]
                             100.395       100.395             = 
    69 def_dist[5,9]
                             100.173       100.173             = 
    70 def_dist[5,10]
                             100.348       100.348             = 
    71 def_dist[5,11]
                              100.38        100.38             = 
    72 def_dist[5,12]
                             100.967       100.967             = 
    73 def_dist[5,13]
                             100.799       100.799             = 
    74 def_dist[5,14]
                             100.379       100.379             = 
    75 def_dist[5,15]
                             100.579       100.579             = 
    76 capacita[1]                -3                          -0 
    77 capacita[2]                 0                          -0 
    78 capacita[3]                -9                          -0 
    79 capacita[4]                 0                          -0 
    80 capacita[5]                 0                          -0 
    81 ass[1]                      1             1               
    82 ass[2]                      1             1               
    83 ass[3]                      1             1               
    84 ass[4]                      1             1               
    85 ass[5]                      1             1               
    86 ass[6]                      1             1               
    87 ass[7]                      1             1               
    88 ass[8]                      1             1               
    89 ass[9]                      1             1               
    90 ass[10]                     1             1               
    91 ass[11]                     1             1               
    92 ass[12]                     1             1               
    93 ass[13]                     1             1               
    94 ass[14]                     1             1               
    95 ass[15]                     1             1               
    96 z                        10.4                             

   No. Column name       Activity     Lower bound   Upper bound
------ ------------    ------------- ------------- -------------
     1 dist[1,1]             31.2921             0               
     2 dist[1,2]             31.3178             0               
     3 dist[1,3]             31.6375             0               
     4 dist[1,4]             31.1458             0               
     5 dist[1,5]             31.3306             0               
     6 dist[1,6]             31.8549             0               
     7 dist[1,7]             31.1443             0               
     8 dist[1,8]             31.2096             0               
     9 dist[1,9]             30.9085             0               
    10 dist[1,10]            31.0673             0               
    11 dist[1,11]            31.2028             0               
    12 dist[1,12]            31.7284             0               
    13 dist[1,13]            31.5216             0               
    14 dist[1,14]            31.1616             0               
    15 dist[1,15]            31.3092             0               
    16 dist[2,1]             59.7796             0               
    17 dist[2,2]             59.6532             0               
    18 dist[2,3]             60.1218             0               
    19 dist[2,4]              59.584             0               
    20 dist[2,5]             59.8916             0               
    21 dist[2,6]              60.234             0               
    22 dist[2,7]              59.595             0               
    23 dist[2,8]              59.526             0               
    24 dist[2,9]             59.4242             0               
    25 dist[2,10]            59.6236             0               
    26 dist[2,11]            59.5014             0               
    27 dist[2,12]            60.1622             0               
    28 dist[2,13]            60.0609             0               
    29 dist[2,14]            59.5546             0               
    30 dist[2,15]            59.8303             0               
    31 dist[3,1]             90.7403             0               
    32 dist[3,2]             90.4638             0               
    33 dist[3,3]             91.0568             0               
    34 dist[3,4]             90.5061             0               
    35 dist[3,5]             90.9231             0               
    36 dist[3,6]             91.0507             0               
    37 dist[3,7]             90.5294             0               
    38 dist[3,8]             90.3257             0               
    39 dist[3,9]              90.438             0               
    40 dist[3,10]            90.6674             0               
    41 dist[3,11]            90.2846             0               
    42 dist[3,12]            91.0412             0               
    43 dist[3,13]            91.0583             0               
    44 dist[3,14]            90.4315             0               
    45 dist[3,15]            90.8233             0               
    46 dist[4,1]             46.6819             0               
    47 dist[4,2]             47.0373             0               
    48 dist[4,3]             46.9535             0               
    49 dist[4,4]             46.6804             0               
    50 dist[4,5]             46.5425             0               
    51 dist[4,6]             47.3554             0               
    52 dist[4,7]             46.6516             0               
    53 dist[4,8]             46.9951             0               
    54 dist[4,9]             46.3254             0               
    55 dist[4,10]            46.3527             0               
    56 dist[4,11]            47.0278             0               
    57 dist[4,12]             47.137             0               
    58 dist[4,13]            46.7387             0               
    59 dist[4,14]            46.7926             0               
    60 dist[4,15]            46.6183             0               
    61 dist[5,1]             100.548             0               
    62 dist[5,2]             100.512             0               
    63 dist[5,3]             100.895             0               
    64 dist[5,4]             100.382             0               
    65 dist[5,5]             100.615             0               
    66 dist[5,6]             101.072             0               
    67 dist[5,7]             100.385             0               
    68 dist[5,8]             100.395             0               
    69 dist[5,9]             100.173             0               
    70 dist[5,10]            100.348             0               
    71 dist[5,11]             100.38             0               
    72 dist[5,12]            100.967             0               
    73 dist[5,13]            100.799             0               
    74 dist[5,14]            100.379             0               
    75 dist[5,15]            100.579             0               
    76 x[1,1]       *              0             0             1 
    77 x[1,2]       *              0             0             1 
    78 x[1,3]       *              0             0             1 
    79 x[1,4]       *              1             0             1 
    80 x[1,5]       *              0             0             1 
    81 x[1,6]       *              1             0             1 
    82 x[1,7]       *              0             0             1 
    83 x[1,8]       *              1             0             1 
    84 x[1,9]       *              0             0             1 
    85 x[1,10]      *              0             0             1 
    86 x[1,11]      *              0             0             1 
    87 x[1,12]      *              0             0             1 
    88 x[1,13]      *              0             0             1 
    89 x[1,14]      *              1             0             1 
    90 x[1,15]      *              1             0             1 
    91 x[2,1]       *              0             0             1 
    92 x[2,2]       *              0             0             1 
    93 x[2,3]       *              0             0             1 
    94 x[2,4]       *              0             0             1 
    95 x[2,5]       *              0             0             1 
    96 x[2,6]       *              0             0             1 
    97 x[2,7]       *              0             0             1 
    98 x[2,8]       *              0             0             1 
    99 x[2,9]       *              0             0             1 
   100 x[2,10]      *              0             0             1 
   101 x[2,11]      *              0             0             1 
   102 x[2,12]      *              0             0             1 
   103 x[2,13]      *              0             0             1 
   104 x[2,14]      *              0             0             1 
   105 x[2,15]      *              0             0             1 
   106 x[3,1]       *              0             0             1 
   107 x[3,2]       *              1             0             1 
   108 x[3,3]       *              1             0             1 
   109 x[3,4]       *              0             0             1 
   110 x[3,5]       *              0             0             1 
   111 x[3,6]       *              0             0             1 
   112 x[3,7]       *              0             0             1 
   113 x[3,8]       *              0             0             1 
   114 x[3,9]       *              0             0             1 
   115 x[3,10]      *              1             0             1 
   116 x[3,11]      *              0             0             1 
   117 x[3,12]      *              1             0             1 
   118 x[3,13]      *              1             0             1 
   119 x[3,14]      *              0             0             1 
   120 x[3,15]      *              0             0             1 
   121 x[4,1]       *              1             0             1 
   122 x[4,2]       *              0             0             1 
   123 x[4,3]       *              0             0             1 
   124 x[4,4]       *              0             0             1 
   125 x[4,5]       *              1             0             1 
   126 x[4,6]       *              0             0             1 
   127 x[4,7]       *              1             0             1 
   128 x[4,8]       *              0             0             1 
   129 x[4,9]       *              1             0             1 
   130 x[4,10]      *              0             0             1 
   131 x[4,11]      *              1             0             1 
   132 x[4,12]      *              0             0             1 
   133 x[4,13]      *              0             0             1 
   134 x[4,14]      *              0             0             1 
   135 x[4,15]      *              0             0             1 
   136 x[5,1]       *              0             0             1 
   137 x[5,2]       *              0             0             1 
   138 x[5,3]       *              0             0             1 
   139 x[5,4]       *              0             0             1 
   140 x[5,5]       *              0             0             1 
   141 x[5,6]       *              0             0             1 
   142 x[5,7]       *              0             0             1 
   143 x[5,8]       *              0             0             1 
   144 x[5,9]       *              0             0             1 
   145 x[5,10]      *              0             0             1 
   146 x[5,11]      *              0             0             1 
   147 x[5,12]      *              0             0             1 
   148 x[5,13]      *              0             0             1 
   149 x[5,14]      *              0             0             1 
   150 x[5,15]      *              0             0             1 
   151 y[1]         *              1             0             1 
   152 y[2]         *              0             0             1 
   153 y[3]         *              1             0             1 
   154 y[4]         *              1             0             1 
   155 y[5]         *              0             0             1 

Integer feasibility conditions:

KKT.PE: max.abs.err = 0.00e+000 on row 0
        max.rel.err = 0.00e+000 on row 0
        High quality

KKT.PB: max.abs.err = 0.00e+000 on row 0
        max.rel.err = 0.00e+000 on row 0
        High quality

End of output
